
  12   12
  10   10   10   10   10   10   10   10   10   10   10   10

   0   0   0   0   0   0   0   0   0   0   0   0   0   4 2 3 4 5 
   6   0   0   1   1   0   0   0   0   1   0   1   1   3 11 7 6 
   4   0   0   7   8   0   0   0   0   0   0   0   0   3 9 8 7 
   3   1   0   0   0   0   1   5   1   7   0   0   0   3 9 8 7 
   2   0   0   0   0   0   0   0   0   0   1   0   7   2 10 7 
   8   6   1   0   7   0   0   0   5   0   6   0   0   1 8 
   1   0   0   0   0   0   0   0   0   0   0   0   0   1 12
   3   4   0   0   4   5   0   0   5   3   0   6   7   1 12
   9   9   0   7   0   0   6   0   0   9   0   8   0   1 12
   8   0   0   0   0   0   0   0   0   0   8   0   0   1 12
   3   0   9   0   0   0   8   0   9   0   0   0   0   1 12
   0   0   0   0   0   0   0   0   0   0   0   0   0   0 
